0 205 
1 207 
2 211 
3 214 
4 217 
5 219 
6 219 
7 218 
8 216 
9 216 
10 216 
11 214 
12 212 
13 211 
14 210 
15 211 
16 209 
17 206 
18 204 
19 201 
20 202 
21 201 
22 200 
23 197 
24 196 
25 194 
26 195 
27 191 
28 187 
29 187 
30 185 
31 183 
32 183 
33 182 
34 178 
35 178 
36 176 
37 179 
38 179 
39 181 
40 180 
41 178 
42 176 
43 174 
44 173 
45 172 
46 171 
47 170 
48 169 
49 165 
50 162 
51 161 
52 164 
53 163 
54 162 
55 161 
56 159 
57 156 
58 154 
59 151 
60 147 
61 144 
62 143 
63 144 
64 142 
65 143 
66 142 
67 138 
68 133 
69 134 
70 135 
71 131 
72 133 
73 131 
74 130 
75 130 
76 126 
77 125 
78 125 
79 129 
80 125 
81 122 
82 124 
83 124 
84 121 
85 123 
86 120 
87 118 
88 118 
89 114 
90 113 
91 111 
92 106 
93 106 
94 105 
95 101 
96 99 
97 97 
98 92 
99 90 
100 88 
101 86 
102 88 
103 90 
104 92 
105 91 
106 90 
107 88 
108 85 
109 81 
110 81 
111 79 
112 77 
113 75 
114 71 
115 69 
116 67 
117 64 
118 66 
119 65 
120 63 
121 61 
122 57 
123 53 
124 50 
125 48 
126 46 
127 43 
128 43 
129 41 
130 40 
131 37 
132 37 
133 36 
134 33 
135 33 
136 32 
137 31 
138 32 
139 30 
140 28 
141 27 
142 27 
143 25 
144 20 
145 18 
146 16 
147 13 
148 11 
149 6 
150 7 
151 5 
152 3 
153 5 
154 3 
155 2 
156 3 
157 2 
158 1 
159 0 
160 0 

